; benchmark generated from python API
(set-info :status unknown)
(declare-fun strlen_85_64 () (_ BitVec 64))
(declare-fun args_1_8 () (_ BitVec 8))
(declare-fun strlen_83_64 () (_ BitVec 64))
(declare-fun strncmp_ret_84_32 () (_ BitVec 32))
(declare-fun strncmp_ret_86_32 () (_ BitVec 32))
(declare-fun filesize_file_0_/proc/self/loginuid_88_64 () (_ BitVec 64))
(declare-fun syscall_stub_ioctl_95_32 () (_ BitVec 32))
(declare-fun syscall_stub_newfstatat_124_64 () (_ BitVec 64))
(declare-fun syscall_stub_ioctl_2455_32 () (_ BitVec 32))
(declare-fun syscall_stub_newfstatat_3003_64 () (_ BitVec 64))
(declare-fun syscall_stub_readlink_3243_64 () (_ BitVec 64))
(declare-fun strlen_5122_64 () (_ BitVec 64))
(declare-fun mem_7fffffffffef42d_3462_3576 () (_ BitVec 3576))
(declare-fun mem_7fffffffffef42c_3368_8 () (_ BitVec 8))
(declare-fun mem_7fffffffffef428_3342_32 () (_ BitVec 32))
(declare-fun mem_7fffffffffef420_3324_64 () (_ BitVec 64))
(declare-fun syscall_stub_newfstatat_3483_64 () (_ BitVec 64))
(declare-fun mem_7fffffffffef038_3679_64 () (_ BitVec 64))
(declare-fun mem_7fffffffffeefa8_3680_64 () (_ BitVec 64))
(declare-fun mem_7fffffffffeefa0_3762_64 () (_ BitVec 64))
(declare-fun mem_7fffffffffef030_3763_64 () (_ BitVec 64))
(declare-fun mem_7fffffffffef048_3834_32 () (_ BitVec 32))
(declare-fun mem_7fffffffffeefc8_3970_64 () (_ BitVec 64))
(declare-fun mem_7fffffffffef058_3971_64 () (_ BitVec 64))
(assert
 (let ((?x751 (bvadd (_ bv576460752303357826 64) strlen_85_64)))
 (let (($x69 (= (_ bv0 8) args_1_8)))
 (let ((?x46 (ite $x69 (_ bv576460752303357826 64) (_ bv576460752303357827 64))))
 (= ?x46 ?x751)))))
(assert
 (let ((?x101 (bvadd (_ bv576460752303357826 64) strlen_83_64)))
 (let (($x69 (= (_ bv0 8) args_1_8)))
 (let ((?x46 (ite $x69 (_ bv576460752303357826 64) (_ bv576460752303357827 64))))
 (= ?x46 ?x101)))))
(assert
 (let (($x104 (bvule (_ bv2 64) strlen_83_64)))
 (let (($x48 (= (_ bv2 64) strlen_83_64)))
 (let (($x122 (or $x48 $x104)))
 (let (($x123 (not $x122)))
 (let (($x57 (= (_ bv45 8) args_1_8)))
 (let (($x121 (not $x57)))
 (or $x121 $x123))))))))
(assert
 (= (_ bv1 32) strncmp_ret_84_32))
(assert
 (= (_ bv1 32) strncmp_ret_86_32))
(assert
 true)
(assert
 (let (($x1210 (bvsge (_ bv0 64) filesize_file_0_/proc/self/loginuid_88_64)))
 (let ((?x1217 (ite $x1210 (_ bv0 64) filesize_file_0_/proc/self/loginuid_88_64)))
 (let ((?x1236 ((_ extract 3 0) filesize_file_0_/proc/self/loginuid_88_64)))
 (let ((?x99 (ite $x1210 (_ bv0 4) ?x1236)))
 (let (($x1110 (bvule ?x99 (_ bv12 4))))
 (let ((?x1229 ((_ extract 63 4) filesize_file_0_/proc/self/loginuid_88_64)))
 (let (($x523 (= (_ bv0 60) ?x1229)))
 (let (($x516 (or $x1210 $x523)))
 (let (($x975 (and $x516 $x1110)))
 (let ((?x1169 (ite $x975 ?x1217 (_ bv12 64))))
 (= (_ bv12 64) ?x1169))))))))))))
(assert
 (= (_ bv0 32) syscall_stub_ioctl_95_32))
(assert
 (let ((?x3122 ((_ extract 31 0) syscall_stub_newfstatat_124_64)))
 (= (_ bv4294967262 32) ?x3122)))
(assert
 (= (_ bv0 32) syscall_stub_ioctl_2455_32))
(assert
 (let ((?x490342 ((_ extract 31 0) syscall_stub_newfstatat_3003_64)))
 (bvule ?x490342 (_ bv4294963200 32))))
(assert
 (= (_ bv17870283321406196703 64) syscall_stub_readlink_3243_64))
(assert
 (let ((?x1271821 (bvadd (_ bv576460752303354917 64) strlen_5122_64)))
 (let ((?x1271076 ((_ extract 3167 3160) mem_7fffffffffef42d_3462_3576)))
 (let (($x1271075 (= (_ bv0 8) ?x1271076)))
 (let ((?x1271077 (ite $x1271075 (_ bv576460752303354976 64) (_ bv0 64))))
 (let ((?x1271074 ((_ extract 3175 3168) mem_7fffffffffef42d_3462_3576)))
 (let (($x1271073 (= (_ bv0 8) ?x1271074)))
 (let ((?x1271079 (ite $x1271073 (_ bv576460752303354975 64) ?x1271077)))
 (let ((?x1271072 ((_ extract 3183 3176) mem_7fffffffffef42d_3462_3576)))
 (let (($x1271071 (= (_ bv0 8) ?x1271072)))
 (let ((?x1271080 (ite $x1271071 (_ bv576460752303354974 64) ?x1271079)))
 (let ((?x1271070 ((_ extract 3191 3184) mem_7fffffffffef42d_3462_3576)))
 (let (($x1271069 (= (_ bv0 8) ?x1271070)))
 (let ((?x1271081 (ite $x1271069 (_ bv576460752303354973 64) ?x1271080)))
 (let ((?x1271068 ((_ extract 3199 3192) mem_7fffffffffef42d_3462_3576)))
 (let (($x1271067 (= (_ bv0 8) ?x1271068)))
 (let ((?x1271082 (ite $x1271067 (_ bv576460752303354972 64) ?x1271081)))
 (let ((?x1271066 ((_ extract 3207 3200) mem_7fffffffffef42d_3462_3576)))
 (let (($x1271065 (= (_ bv0 8) ?x1271066)))
 (let ((?x1271083 (ite $x1271065 (_ bv576460752303354971 64) ?x1271082)))
 (let ((?x1271064 ((_ extract 3215 3208) mem_7fffffffffef42d_3462_3576)))
 (let (($x1271063 (= (_ bv0 8) ?x1271064)))
 (let ((?x1271084 (ite $x1271063 (_ bv576460752303354970 64) ?x1271083)))
 (let ((?x1271062 ((_ extract 3223 3216) mem_7fffffffffef42d_3462_3576)))
 (let (($x1271061 (= (_ bv0 8) ?x1271062)))
 (let ((?x1271085 (ite $x1271061 (_ bv576460752303354969 64) ?x1271084)))
 (let ((?x1271060 ((_ extract 3231 3224) mem_7fffffffffef42d_3462_3576)))
 (let (($x1271059 (= (_ bv0 8) ?x1271060)))
 (let ((?x1271086 (ite $x1271059 (_ bv576460752303354968 64) ?x1271085)))
 (let ((?x1271058 ((_ extract 3239 3232) mem_7fffffffffef42d_3462_3576)))
 (let (($x1271057 (= (_ bv0 8) ?x1271058)))
 (let ((?x1271087 (ite $x1271057 (_ bv576460752303354967 64) ?x1271086)))
 (let ((?x1271056 ((_ extract 3247 3240) mem_7fffffffffef42d_3462_3576)))
 (let (($x1271055 (= (_ bv0 8) ?x1271056)))
 (let ((?x1271088 (ite $x1271055 (_ bv576460752303354966 64) ?x1271087)))
 (let ((?x1271054 ((_ extract 3255 3248) mem_7fffffffffef42d_3462_3576)))
 (let (($x1271053 (= (_ bv0 8) ?x1271054)))
 (let ((?x1271089 (ite $x1271053 (_ bv576460752303354965 64) ?x1271088)))
 (let ((?x1271052 ((_ extract 3263 3256) mem_7fffffffffef42d_3462_3576)))
 (let (($x1271050 (= (_ bv0 8) ?x1271052)))
 (let ((?x1271090 (ite $x1271050 (_ bv576460752303354964 64) ?x1271089)))
 (let ((?x1271051 ((_ extract 3271 3264) mem_7fffffffffef42d_3462_3576)))
 (let (($x1271049 (= (_ bv0 8) ?x1271051)))
 (let ((?x1271091 (ite $x1271049 (_ bv576460752303354963 64) ?x1271090)))
 (let ((?x1271048 ((_ extract 3279 3272) mem_7fffffffffef42d_3462_3576)))
 (let (($x1271047 (= (_ bv0 8) ?x1271048)))
 (let ((?x1271092 (ite $x1271047 (_ bv576460752303354962 64) ?x1271091)))
 (let ((?x1271046 ((_ extract 3287 3280) mem_7fffffffffef42d_3462_3576)))
 (let (($x1271045 (= (_ bv0 8) ?x1271046)))
 (let ((?x1271093 (ite $x1271045 (_ bv576460752303354961 64) ?x1271092)))
 (let ((?x1271044 ((_ extract 3295 3288) mem_7fffffffffef42d_3462_3576)))
 (let (($x1271043 (= (_ bv0 8) ?x1271044)))
 (let ((?x1271094 (ite $x1271043 (_ bv576460752303354960 64) ?x1271093)))
 (let ((?x1271042 ((_ extract 3303 3296) mem_7fffffffffef42d_3462_3576)))
 (let (($x1271041 (= (_ bv0 8) ?x1271042)))
 (let ((?x1271095 (ite $x1271041 (_ bv576460752303354959 64) ?x1271094)))
 (let ((?x1271040 ((_ extract 3311 3304) mem_7fffffffffef42d_3462_3576)))
 (let (($x1271039 (= (_ bv0 8) ?x1271040)))
 (let ((?x1271096 (ite $x1271039 (_ bv576460752303354958 64) ?x1271095)))
 (let ((?x1271038 ((_ extract 3319 3312) mem_7fffffffffef42d_3462_3576)))
 (let (($x1271037 (= (_ bv0 8) ?x1271038)))
 (let ((?x1271097 (ite $x1271037 (_ bv576460752303354957 64) ?x1271096)))
 (let ((?x1271036 ((_ extract 3327 3320) mem_7fffffffffef42d_3462_3576)))
 (let (($x1271035 (= (_ bv0 8) ?x1271036)))
 (let ((?x1271098 (ite $x1271035 (_ bv576460752303354956 64) ?x1271097)))
 (let ((?x1271034 ((_ extract 3335 3328) mem_7fffffffffef42d_3462_3576)))
 (let (($x1271033 (= (_ bv0 8) ?x1271034)))
 (let ((?x1271099 (ite $x1271033 (_ bv576460752303354955 64) ?x1271098)))
 (let ((?x1271032 ((_ extract 3343 3336) mem_7fffffffffef42d_3462_3576)))
 (let (($x1271031 (= (_ bv0 8) ?x1271032)))
 (let ((?x1271100 (ite $x1271031 (_ bv576460752303354954 64) ?x1271099)))
 (let ((?x1271030 ((_ extract 3351 3344) mem_7fffffffffef42d_3462_3576)))
 (let (($x1271029 (= (_ bv0 8) ?x1271030)))
 (let ((?x1271101 (ite $x1271029 (_ bv576460752303354953 64) ?x1271100)))
 (let ((?x1271028 ((_ extract 3359 3352) mem_7fffffffffef42d_3462_3576)))
 (let (($x1271027 (= (_ bv0 8) ?x1271028)))
 (let ((?x1271102 (ite $x1271027 (_ bv576460752303354952 64) ?x1271101)))
 (let ((?x1271026 ((_ extract 3367 3360) mem_7fffffffffef42d_3462_3576)))
 (let (($x1271025 (= (_ bv0 8) ?x1271026)))
 (let ((?x1271103 (ite $x1271025 (_ bv576460752303354951 64) ?x1271102)))
 (let ((?x1271024 ((_ extract 3375 3368) mem_7fffffffffef42d_3462_3576)))
 (let (($x1271023 (= (_ bv0 8) ?x1271024)))
 (let ((?x1271104 (ite $x1271023 (_ bv576460752303354950 64) ?x1271103)))
 (let ((?x1271022 ((_ extract 3383 3376) mem_7fffffffffef42d_3462_3576)))
 (let (($x1271021 (= (_ bv0 8) ?x1271022)))
 (let ((?x1271105 (ite $x1271021 (_ bv576460752303354949 64) ?x1271104)))
 (let ((?x1271020 ((_ extract 3391 3384) mem_7fffffffffef42d_3462_3576)))
 (let (($x1271019 (= (_ bv0 8) ?x1271020)))
 (let ((?x1271107 (ite $x1271019 (_ bv576460752303354948 64) ?x1271105)))
 (let ((?x1271018 ((_ extract 3399 3392) mem_7fffffffffef42d_3462_3576)))
 (let (($x1271017 (= (_ bv0 8) ?x1271018)))
 (let ((?x1271106 (ite $x1271017 (_ bv576460752303354947 64) ?x1271107)))
 (let ((?x1271016 ((_ extract 3407 3400) mem_7fffffffffef42d_3462_3576)))
 (let (($x1271015 (= (_ bv0 8) ?x1271016)))
 (let ((?x1271108 (ite $x1271015 (_ bv576460752303354946 64) ?x1271106)))
 (let ((?x1271014 ((_ extract 3415 3408) mem_7fffffffffef42d_3462_3576)))
 (let (($x1271013 (= (_ bv0 8) ?x1271014)))
 (let ((?x1271109 (ite $x1271013 (_ bv576460752303354945 64) ?x1271108)))
 (let ((?x1271012 ((_ extract 3423 3416) mem_7fffffffffef42d_3462_3576)))
 (let (($x1271011 (= (_ bv0 8) ?x1271012)))
 (let ((?x1271110 (ite $x1271011 (_ bv576460752303354944 64) ?x1271109)))
 (let ((?x1271010 ((_ extract 3431 3424) mem_7fffffffffef42d_3462_3576)))
 (let (($x1271009 (= (_ bv0 8) ?x1271010)))
 (let ((?x1271111 (ite $x1271009 (_ bv576460752303354943 64) ?x1271110)))
 (let ((?x1271008 ((_ extract 3439 3432) mem_7fffffffffef42d_3462_3576)))
 (let (($x1271007 (= (_ bv0 8) ?x1271008)))
 (let ((?x1271112 (ite $x1271007 (_ bv576460752303354942 64) ?x1271111)))
 (let ((?x1271005 ((_ extract 3447 3440) mem_7fffffffffef42d_3462_3576)))
 (let (($x1271004 (= (_ bv0 8) ?x1271005)))
 (let ((?x1271113 (ite $x1271004 (_ bv576460752303354941 64) ?x1271112)))
 (let ((?x1271003 ((_ extract 3455 3448) mem_7fffffffffef42d_3462_3576)))
 (let (($x1271002 (= (_ bv0 8) ?x1271003)))
 (let ((?x1271114 (ite $x1271002 (_ bv576460752303354940 64) ?x1271113)))
 (let ((?x1271001 ((_ extract 3463 3456) mem_7fffffffffef42d_3462_3576)))
 (let (($x1271000 (= (_ bv0 8) ?x1271001)))
 (let ((?x1271115 (ite $x1271000 (_ bv576460752303354939 64) ?x1271114)))
 (let ((?x1270999 ((_ extract 3471 3464) mem_7fffffffffef42d_3462_3576)))
 (let (($x1270998 (= (_ bv0 8) ?x1270999)))
 (let ((?x1271116 (ite $x1270998 (_ bv576460752303354938 64) ?x1271115)))
 (let ((?x1270997 ((_ extract 3479 3472) mem_7fffffffffef42d_3462_3576)))
 (let (($x1270996 (= (_ bv0 8) ?x1270997)))
 (let ((?x1271117 (ite $x1270996 (_ bv576460752303354937 64) ?x1271116)))
 (let ((?x1270995 ((_ extract 3487 3480) mem_7fffffffffef42d_3462_3576)))
 (let (($x1270994 (= (_ bv0 8) ?x1270995)))
 (let ((?x1271118 (ite $x1270994 (_ bv576460752303354936 64) ?x1271117)))
 (let ((?x1270993 ((_ extract 3495 3488) mem_7fffffffffef42d_3462_3576)))
 (let (($x1270992 (= (_ bv0 8) ?x1270993)))
 (let ((?x1271119 (ite $x1270992 (_ bv576460752303354935 64) ?x1271118)))
 (let ((?x1270991 ((_ extract 3503 3496) mem_7fffffffffef42d_3462_3576)))
 (let (($x1270990 (= (_ bv0 8) ?x1270991)))
 (let ((?x1271120 (ite $x1270990 (_ bv576460752303354934 64) ?x1271119)))
 (let ((?x1270989 ((_ extract 3511 3504) mem_7fffffffffef42d_3462_3576)))
 (let (($x1270988 (= (_ bv0 8) ?x1270989)))
 (let ((?x1271121 (ite $x1270988 (_ bv576460752303354933 64) ?x1271120)))
 (let ((?x1270987 ((_ extract 3519 3512) mem_7fffffffffef42d_3462_3576)))
 (let (($x1270986 (= (_ bv0 8) ?x1270987)))
 (let ((?x1271122 (ite $x1270986 (_ bv576460752303354932 64) ?x1271121)))
 (let ((?x1270985 ((_ extract 3527 3520) mem_7fffffffffef42d_3462_3576)))
 (let (($x1270984 (= (_ bv0 8) ?x1270985)))
 (let ((?x1271123 (ite $x1270984 (_ bv576460752303354931 64) ?x1271122)))
 (let ((?x560833 ((_ extract 3535 3528) mem_7fffffffffef42d_3462_3576)))
 (let (($x559756 (= (_ bv0 8) ?x560833)))
 (let ((?x1271124 (ite $x559756 (_ bv576460752303354930 64) ?x1271123)))
 (let ((?x776638 ((_ extract 3543 3536) mem_7fffffffffef42d_3462_3576)))
 (let (($x560501 (= (_ bv0 8) ?x776638)))
 (let ((?x1271125 (ite $x560501 (_ bv576460752303354929 64) ?x1271124)))
 (let ((?x759072 ((_ extract 3551 3544) mem_7fffffffffef42d_3462_3576)))
 (let (($x561120 (= (_ bv0 8) ?x759072)))
 (let ((?x1271126 (ite $x561120 (_ bv576460752303354928 64) ?x1271125)))
 (let ((?x769544 ((_ extract 3559 3552) mem_7fffffffffef42d_3462_3576)))
 (let (($x561418 (= (_ bv0 8) ?x769544)))
 (let ((?x1271127 (ite $x561418 (_ bv576460752303354927 64) ?x1271126)))
 (let ((?x769674 ((_ extract 3567 3560) mem_7fffffffffef42d_3462_3576)))
 (let (($x891569 (= (_ bv0 8) ?x769674)))
 (let ((?x1271128 (ite $x891569 (_ bv576460752303354926 64) ?x1271127)))
 (let ((?x757027 ((_ extract 3575 3568) mem_7fffffffffef42d_3462_3576)))
 (let (($x891551 (= (_ bv0 8) ?x757027)))
 (let ((?x1271129 (ite $x891551 (_ bv576460752303354925 64) ?x1271128)))
 (let (($x1270982 (= (_ bv0 8) mem_7fffffffffef42c_3368_8)))
 (let ((?x1271130 (ite $x1270982 (_ bv576460752303354924 64) ?x1271129)))
 (let ((?x735902 ((_ extract 31 24) mem_7fffffffffef428_3342_32)))
 (let (($x1270981 (= (_ bv0 8) ?x735902)))
 (let ((?x1271131 (ite $x1270981 (_ bv576460752303354923 64) ?x1271130)))
 (let ((?x735811 ((_ extract 23 16) mem_7fffffffffef428_3342_32)))
 (let (($x1270979 (= (_ bv0 8) ?x735811)))
 (let ((?x1271132 (ite $x1270979 (_ bv576460752303354922 64) ?x1271131)))
 (let ((?x735890 ((_ extract 15 8) mem_7fffffffffef428_3342_32)))
 (let (($x1270978 (= (_ bv0 8) ?x735890)))
 (let ((?x1271133 (ite $x1270978 (_ bv576460752303354921 64) ?x1271132)))
 (let ((?x735673 ((_ extract 7 0) mem_7fffffffffef428_3342_32)))
 (let (($x1270975 (= (_ bv0 8) ?x735673)))
 (let ((?x1271134 (ite $x1270975 (_ bv576460752303354920 64) ?x1271133)))
 (let ((?x735304 ((_ extract 63 56) mem_7fffffffffef420_3324_64)))
 (let (($x1260651 (= (_ bv0 8) ?x735304)))
 (let ((?x1271135 (ite $x1260651 (_ bv576460752303354919 64) ?x1271134)))
 (let ((?x735268 ((_ extract 55 48) mem_7fffffffffef420_3324_64)))
 (let (($x1260631 (= (_ bv0 8) ?x735268)))
 (let ((?x1271136 (ite $x1260631 (_ bv576460752303354918 64) ?x1271135)))
 (let ((?x735320 ((_ extract 47 40) mem_7fffffffffef420_3324_64)))
 (let (($x1260674 (= (_ bv0 8) ?x735320)))
 (let ((?x1271137 (ite $x1260674 (_ bv576460752303354917 64) ?x1271136)))
 (= ?x1271137 ?x1271821))))))))))))))))))))))))))))))))))))))))))))))))))))))))))))))))))))))))))))))))))))))))))))))))))))))))))))))))))))))))))))))))))))))))))))))))))))))))))))))))))))))))))))))))))))))
(assert
 (let ((?x555453 ((_ extract 7 0) mem_7fffffffffef420_3324_64)))
 (= (_ bv47 8) ?x555453)))
(assert
 (let ((?x1275272 ((_ extract 5 0) strlen_5122_64)))
 (let ((?x1275891 (bvadd (_ bv1 6) ?x1275272)))
 (let (($x1275559 (bvule (_ bv31 64) strlen_5122_64)))
 (let (($x1275649 (bvule strlen_5122_64 (_ bv18446744073709551614 64))))
 (let (($x1275236 (and $x1275649 $x1275559)))
 (let ((?x1275305 (ite $x1275236 (_ bv32 6) ?x1275891)))
 (bvule ?x1275305 (_ bv32 6)))))))))
(assert
 (let ((?x1275120 (bvadd (_ bv1 64) strlen_5122_64)))
 (let (($x1275559 (bvule (_ bv31 64) strlen_5122_64)))
 (let (($x1275649 (bvule strlen_5122_64 (_ bv18446744073709551614 64))))
 (let (($x1275236 (and $x1275649 $x1275559)))
 (let ((?x1275844 (ite $x1275236 (_ bv32 64) ?x1275120)))
 (bvule (_ bv1 64) ?x1275844)))))))
(assert
 (let ((?x735320 ((_ extract 47 40) mem_7fffffffffef420_3324_64)))
 (let (($x1260674 (= (_ bv0 8) ?x735320)))
 (let ((?x735304 ((_ extract 63 56) mem_7fffffffffef420_3324_64)))
 (let (($x1260651 (= (_ bv0 8) ?x735304)))
 (let ((?x735268 ((_ extract 55 48) mem_7fffffffffef420_3324_64)))
 (let (($x1260631 (= (_ bv0 8) ?x735268)))
 (let ((?x735890 ((_ extract 15 8) mem_7fffffffffef428_3342_32)))
 (let (($x1270978 (= (_ bv0 8) ?x735890)))
 (let ((?x735811 ((_ extract 23 16) mem_7fffffffffef428_3342_32)))
 (let (($x1270979 (= (_ bv0 8) ?x735811)))
 (let ((?x735902 ((_ extract 31 24) mem_7fffffffffef428_3342_32)))
 (let (($x1270981 (= (_ bv0 8) ?x735902)))
 (let (($x1270982 (= (_ bv0 8) mem_7fffffffffef42c_3368_8)))
 (let ((?x757027 ((_ extract 3575 3568) mem_7fffffffffef42d_3462_3576)))
 (let (($x891551 (= (_ bv0 8) ?x757027)))
 (let ((?x769674 ((_ extract 3567 3560) mem_7fffffffffef42d_3462_3576)))
 (let (($x891569 (= (_ bv0 8) ?x769674)))
 (let ((?x769544 ((_ extract 3559 3552) mem_7fffffffffef42d_3462_3576)))
 (let (($x561418 (= (_ bv0 8) ?x769544)))
 (let ((?x759072 ((_ extract 3551 3544) mem_7fffffffffef42d_3462_3576)))
 (let (($x561120 (= (_ bv0 8) ?x759072)))
 (let ((?x776638 ((_ extract 3543 3536) mem_7fffffffffef42d_3462_3576)))
 (let (($x560501 (= (_ bv0 8) ?x776638)))
 (let ((?x560833 ((_ extract 3535 3528) mem_7fffffffffef42d_3462_3576)))
 (let (($x559756 (= (_ bv0 8) ?x560833)))
 (let ((?x1270985 ((_ extract 3527 3520) mem_7fffffffffef42d_3462_3576)))
 (let (($x1270984 (= (_ bv0 8) ?x1270985)))
 (let ((?x1270987 ((_ extract 3519 3512) mem_7fffffffffef42d_3462_3576)))
 (let (($x1270986 (= (_ bv0 8) ?x1270987)))
 (let ((?x1270989 ((_ extract 3511 3504) mem_7fffffffffef42d_3462_3576)))
 (let (($x1270988 (= (_ bv0 8) ?x1270989)))
 (let ((?x1270991 ((_ extract 3503 3496) mem_7fffffffffef42d_3462_3576)))
 (let (($x1270990 (= (_ bv0 8) ?x1270991)))
 (let ((?x1270993 ((_ extract 3495 3488) mem_7fffffffffef42d_3462_3576)))
 (let (($x1270992 (= (_ bv0 8) ?x1270993)))
 (let ((?x1270995 ((_ extract 3487 3480) mem_7fffffffffef42d_3462_3576)))
 (let (($x1270994 (= (_ bv0 8) ?x1270995)))
 (let ((?x1270997 ((_ extract 3479 3472) mem_7fffffffffef42d_3462_3576)))
 (let (($x1270996 (= (_ bv0 8) ?x1270997)))
 (let ((?x1270999 ((_ extract 3471 3464) mem_7fffffffffef42d_3462_3576)))
 (let (($x1270998 (= (_ bv0 8) ?x1270999)))
 (let ((?x1271001 ((_ extract 3463 3456) mem_7fffffffffef42d_3462_3576)))
 (let (($x1271000 (= (_ bv0 8) ?x1271001)))
 (let ((?x1271003 ((_ extract 3455 3448) mem_7fffffffffef42d_3462_3576)))
 (let (($x1271002 (= (_ bv0 8) ?x1271003)))
 (let ((?x1271005 ((_ extract 3447 3440) mem_7fffffffffef42d_3462_3576)))
 (let (($x1271004 (= (_ bv0 8) ?x1271005)))
 (let ((?x1271008 ((_ extract 3439 3432) mem_7fffffffffef42d_3462_3576)))
 (let (($x1271007 (= (_ bv0 8) ?x1271008)))
 (let ((?x1271010 ((_ extract 3431 3424) mem_7fffffffffef42d_3462_3576)))
 (let (($x1271009 (= (_ bv0 8) ?x1271010)))
 (let ((?x1271012 ((_ extract 3423 3416) mem_7fffffffffef42d_3462_3576)))
 (let (($x1271011 (= (_ bv0 8) ?x1271012)))
 (let ((?x1271014 ((_ extract 3415 3408) mem_7fffffffffef42d_3462_3576)))
 (let (($x1271013 (= (_ bv0 8) ?x1271014)))
 (let ((?x1271016 ((_ extract 3407 3400) mem_7fffffffffef42d_3462_3576)))
 (let (($x1271015 (= (_ bv0 8) ?x1271016)))
 (let ((?x1271018 ((_ extract 3399 3392) mem_7fffffffffef42d_3462_3576)))
 (let (($x1271017 (= (_ bv0 8) ?x1271018)))
 (let ((?x1271020 ((_ extract 3391 3384) mem_7fffffffffef42d_3462_3576)))
 (let (($x1271019 (= (_ bv0 8) ?x1271020)))
 (let ((?x1271024 ((_ extract 3375 3368) mem_7fffffffffef42d_3462_3576)))
 (let (($x1271023 (= (_ bv0 8) ?x1271024)))
 (let ((?x1271022 ((_ extract 3383 3376) mem_7fffffffffef42d_3462_3576)))
 (let (($x1271021 (= (_ bv0 8) ?x1271022)))
 (let ((?x1271026 ((_ extract 3367 3360) mem_7fffffffffef42d_3462_3576)))
 (let (($x1271025 (= (_ bv0 8) ?x1271026)))
 (let ((?x1271028 ((_ extract 3359 3352) mem_7fffffffffef42d_3462_3576)))
 (let (($x1271027 (= (_ bv0 8) ?x1271028)))
 (let ((?x1271030 ((_ extract 3351 3344) mem_7fffffffffef42d_3462_3576)))
 (let (($x1271029 (= (_ bv0 8) ?x1271030)))
 (let ((?x1271032 ((_ extract 3343 3336) mem_7fffffffffef42d_3462_3576)))
 (let (($x1271031 (= (_ bv0 8) ?x1271032)))
 (let ((?x1271034 ((_ extract 3335 3328) mem_7fffffffffef42d_3462_3576)))
 (let (($x1271033 (= (_ bv0 8) ?x1271034)))
 (let ((?x1271036 ((_ extract 3327 3320) mem_7fffffffffef42d_3462_3576)))
 (let (($x1271035 (= (_ bv0 8) ?x1271036)))
 (let ((?x1271038 ((_ extract 3319 3312) mem_7fffffffffef42d_3462_3576)))
 (let (($x1271037 (= (_ bv0 8) ?x1271038)))
 (let ((?x1271040 ((_ extract 3311 3304) mem_7fffffffffef42d_3462_3576)))
 (let (($x1271039 (= (_ bv0 8) ?x1271040)))
 (let ((?x1271042 ((_ extract 3303 3296) mem_7fffffffffef42d_3462_3576)))
 (let (($x1271041 (= (_ bv0 8) ?x1271042)))
 (let ((?x1271044 ((_ extract 3295 3288) mem_7fffffffffef42d_3462_3576)))
 (let (($x1271043 (= (_ bv0 8) ?x1271044)))
 (let ((?x1271046 ((_ extract 3287 3280) mem_7fffffffffef42d_3462_3576)))
 (let (($x1271045 (= (_ bv0 8) ?x1271046)))
 (let ((?x1271048 ((_ extract 3279 3272) mem_7fffffffffef42d_3462_3576)))
 (let (($x1271047 (= (_ bv0 8) ?x1271048)))
 (let ((?x1271051 ((_ extract 3271 3264) mem_7fffffffffef42d_3462_3576)))
 (let (($x1271049 (= (_ bv0 8) ?x1271051)))
 (let ((?x1271052 ((_ extract 3263 3256) mem_7fffffffffef42d_3462_3576)))
 (let (($x1271050 (= (_ bv0 8) ?x1271052)))
 (let ((?x1271054 ((_ extract 3255 3248) mem_7fffffffffef42d_3462_3576)))
 (let (($x1271053 (= (_ bv0 8) ?x1271054)))
 (let ((?x1271056 ((_ extract 3247 3240) mem_7fffffffffef42d_3462_3576)))
 (let (($x1271055 (= (_ bv0 8) ?x1271056)))
 (let ((?x1271058 ((_ extract 3239 3232) mem_7fffffffffef42d_3462_3576)))
 (let (($x1271057 (= (_ bv0 8) ?x1271058)))
 (let ((?x1271060 ((_ extract 3231 3224) mem_7fffffffffef42d_3462_3576)))
 (let (($x1271059 (= (_ bv0 8) ?x1271060)))
 (let ((?x1271062 ((_ extract 3223 3216) mem_7fffffffffef42d_3462_3576)))
 (let (($x1271061 (= (_ bv0 8) ?x1271062)))
 (let ((?x1271064 ((_ extract 3215 3208) mem_7fffffffffef42d_3462_3576)))
 (let (($x1271063 (= (_ bv0 8) ?x1271064)))
 (let ((?x1271066 ((_ extract 3207 3200) mem_7fffffffffef42d_3462_3576)))
 (let (($x1271065 (= (_ bv0 8) ?x1271066)))
 (let ((?x1271068 ((_ extract 3199 3192) mem_7fffffffffef42d_3462_3576)))
 (let (($x1271067 (= (_ bv0 8) ?x1271068)))
 (let ((?x1271070 ((_ extract 3191 3184) mem_7fffffffffef42d_3462_3576)))
 (let (($x1271069 (= (_ bv0 8) ?x1271070)))
 (let ((?x1271072 ((_ extract 3183 3176) mem_7fffffffffef42d_3462_3576)))
 (let (($x1271071 (= (_ bv0 8) ?x1271072)))
 (let ((?x1271074 ((_ extract 3175 3168) mem_7fffffffffef42d_3462_3576)))
 (let (($x1271073 (= (_ bv0 8) ?x1271074)))
 (let ((?x1271076 ((_ extract 3167 3160) mem_7fffffffffef42d_3462_3576)))
 (let (($x1271075 (= (_ bv0 8) ?x1271076)))
 (let ((?x735673 ((_ extract 7 0) mem_7fffffffffef428_3342_32)))
 (let (($x1270975 (= (_ bv0 8) ?x735673)))
 (or $x1270975 $x1271075 $x1271073 $x1271071 $x1271069 $x1271067 $x1271065 $x1271063 $x1271061 $x1271059 $x1271057 $x1271055 $x1271053 $x1271050 $x1271049 $x1271047 $x1271045 $x1271043 $x1271041 $x1271039 $x1271037 $x1271035 $x1271033 $x1271031 $x1271029 $x1271027 $x1271025 $x1271021 $x1271023 $x1271019 $x1271017 $x1271015 $x1271013 $x1271011 $x1271009 $x1271007 $x1271004 $x1271002 $x1271000 $x1270998 $x1270996 $x1270994 $x1270992 $x1270990 $x1270988 $x1270986 $x1270984 $x559756 $x560501 $x561120 $x561418 $x891569 $x891551 $x1270982 $x1270981 $x1270979 $x1270978 $x1260631 $x1260651 $x1260674)))))))))))))))))))))))))))))))))))))))))))))))))))))))))))))))))))))))))))))))))))))))))))))))))))))))))))))))))))))))))
(assert
 (let (($x1275559 (bvule (_ bv31 64) strlen_5122_64)))
 (let (($x1275657 (not $x1275559)))
 (let (($x1275649 (bvule strlen_5122_64 (_ bv18446744073709551614 64))))
 (let (($x1275124 (not $x1275649)))
 (let (($x1275128 (or $x1275124 $x1275657)))
 (let (($x1275309 (not $x1275128)))
 (let ((?x1275120 (bvadd (_ bv1 64) strlen_5122_64)))
 (let ((?x1275332 ((_ extract 63 6) ?x1275120)))
 (let (($x1271737 (= (_ bv0 58) ?x1275332)))
 (or $x1271737 $x1275309)))))))))))
(assert
 (let ((?x561170 ((_ extract 31 0) syscall_stub_newfstatat_3483_64)))
 (bvule ?x561170 (_ bv4294963200 32))))
(assert
 (= mem_7fffffffffeefa8_3680_64 mem_7fffffffffef038_3679_64))
(assert
 (= mem_7fffffffffef030_3763_64 mem_7fffffffffeefa0_3762_64))
(assert
 (let ((?x897049 ((_ extract 15 12) mem_7fffffffffef048_3834_32)))
 (= (_ bv2 4) ?x897049)))
(assert
 (= mem_7fffffffffef058_3971_64 mem_7fffffffffeefc8_3970_64))
(maximize mem_7fffffffffef058_3971_64)
(minimize filesize_file_0_/proc/self/loginuid_88_64)
(minimize strlen_83_64)
(minimize syscall_stub_readlink_3243_64)
(minimize args_1_8)
(maximize strncmp_ret_84_32)
(minimize mem_7fffffffffeefc8_3970_64)
(minimize mem_7fffffffffef42c_3368_8)
(maximize strncmp_ret_86_32)
(maximize strlen_5122_64)
(minimize mem_7fffffffffef428_3342_32)
(maximize mem_7fffffffffeefc8_3970_64)
(maximize mem_7fffffffffeefa0_3762_64)
(maximize syscall_stub_readlink_3243_64)
(maximize mem_7fffffffffef428_3342_32)
(maximize strlen_83_64)
(maximize syscall_stub_newfstatat_3483_64)
(minimize mem_7fffffffffef420_3324_64)
(minimize mem_7fffffffffef058_3971_64)
(maximize syscall_stub_ioctl_2455_32)
(maximize mem_7fffffffffef420_3324_64)
(minimize strncmp_ret_84_32)
(maximize mem_7fffffffffef42d_3462_3576)
(maximize strlen_85_64)
(minimize syscall_stub_ioctl_2455_32)
(maximize syscall_stub_newfstatat_3003_64)
(minimize syscall_stub_newfstatat_3003_64)
(minimize strncmp_ret_86_32)
(minimize mem_7fffffffffeefa0_3762_64)
(minimize mem_7fffffffffef030_3763_64)
(minimize mem_7fffffffffef42d_3462_3576)
(maximize mem_7fffffffffef048_3834_32)
(maximize syscall_stub_ioctl_95_32)
(minimize mem_7fffffffffef038_3679_64)
(minimize syscall_stub_newfstatat_124_64)
(minimize mem_7fffffffffef048_3834_32)
(maximize mem_7fffffffffef030_3763_64)
(minimize strlen_5122_64)
(check-sat)
(get-objectives)
